(set-option :produce-models true)
(set-logic QF_UF)
(declare-fun p17() Bool)
(declare-fun p25() Bool)
(declare-fun p54() Bool)
(declare-fun p9() Bool)
(declare-fun p42() Bool)
(declare-fun p40() Bool)
(declare-fun p45() Bool)
(declare-fun p16() Bool)
(declare-fun p56() Bool)
(declare-fun p24() Bool)
(declare-fun p23() Bool)
(declare-fun p11() Bool)
(declare-fun p1() Bool)
(declare-fun p19() Bool)
(declare-fun p8() Bool)
(declare-fun p52() Bool)
(declare-fun p37() Bool)
(declare-fun p36() Bool)
(declare-fun p13() Bool)
(declare-fun p57() Bool)
(declare-fun p49() Bool)
(declare-fun p22() Bool)
(declare-fun p0() Bool)
(declare-fun p14() Bool)
(declare-fun p48() Bool)
(declare-fun p53() Bool)
(declare-fun p32() Bool)
(declare-fun p55() Bool)
(declare-fun p15() Bool)
(declare-fun p28() Bool)
(declare-fun p6() Bool)
(declare-fun p47() Bool)
(declare-fun p5() Bool)
(declare-fun p12() Bool)
(declare-fun p34() Bool)
(declare-fun p41() Bool)
(declare-fun p38() Bool)
(declare-fun p21() Bool)
(declare-fun p20() Bool)
(declare-fun p26() Bool)
(declare-fun p30() Bool)
(declare-fun p31() Bool)
(declare-fun p59() Bool)
(declare-fun p29() Bool)
(declare-fun p4() Bool)
(declare-fun p44() Bool)
(declare-fun p33() Bool)
(declare-fun p50() Bool)
(declare-fun p18() Bool)
(declare-fun p2() Bool)
(declare-fun p10() Bool)
(declare-fun p43() Bool)
(declare-fun p58() Bool)
(declare-fun p51() Bool)
(declare-fun p27() Bool)
(declare-fun p35() Bool)
(declare-fun p7() Bool)
(declare-fun p3() Bool)
(declare-fun p39() Bool)
(declare-fun p46() Bool)
(assert
(and (or (not p17) p25 (not p54)) (or p9 p42 p40) (or (not p45) p16 (not p56)) (or (not p24) (not p23) p11) (or p24 (not p1) (not p11)) (or (not p19) (not p8) (not p52)) (or (not p37) p36 (not p40)) (or p37 p1 (not p13)) (or (not p57) (not p49) (not p22)) (or p0 p14 (not p25)) (or p48 (not p53) (not p25)) (or (not p8) (not p22) p32) (or (not p55) p15 p16) (or p37 (not p8) (not p16)) (or (not p36) (not p40) (not p53)) (or p28 p8 (not p52)) (or (not p6) (not p1) (not p11)) (or p47 (not p56) p5) (or p53 (not p22) (not p12)) (or (not p57) (not p49) p34) (or p41 p52 p6) (or (not p19) p56 (not p38)) (or (not p22) p21 (not p20)) (or p14 p0 (not p26)) (or p17 p36 (not p56)) (or p53 p36 p30) (or p20 (not p31) p31) (or (not p59) (not p41) p42) (or p41 (not p55) p29) (or (not p29) (not p15) (not p34)) (or p17 (not p47) (not p41)) (or (not p55) p49 (not p47)) (or p53 p59 (not p57)) (or p4 (not p59) p21) (or (not p44) (not p32) p16) (or p33 (not p47) p42) (or p50 p5 p37) (or p41 p37 p37) (or (not p57) (not p8) (not p21)) (or (not p11) p18 p1) (or (not p45) (not p12) p44) (or (not p53) p2 (not p42)) (or (not p12) p10 p14) (or p11 (not p45) (not p21)) (or (not p43) (not p15) p11) (or p58 (not p51) (not p27)) (or (not p35) (not p41) (not p36)) (or (not p50) p4 (not p31)) (or p9 (not p13) (not p29)) (or p33 p16 (not p21)) (or (not p53) p42 (not p32)) (or (not p40) p21 (not p23)) (or p32 (not p31) p6) (or p26 p36 p7) (or (not p41) (not p24) p21) (or (not p5) (not p38) p5) (or (not p54) p3 (not p54)) (or (not p56) p10 p21) (or (not p8) (not p6) (not p41)) (or (not p55) p15 p2) (or p48 (not p3) (not p18)) (or (not p14) p36 (not p25)) (or (not p4) (not p48) p33) (or p45 (not p53) p56) (or (not p51) (not p16) (not p12)) (or p20 p13 p23) (or (not p17) (not p48) (not p3)) (or p52 (not p1) (not p42)) (or (not p58) p38 p53) (or p40 p53 p18) (or (not p54) (not p17) (not p48)) (or (not p49) (not p44) p2) (or (not p25) p22 (not p24)) (or (not p9) (not p57) p30) (or p21 p38 (not p35)) (or p22 p0 p54) (or (not p9) p7 (not p37)) (or (not p55) p9 p54) (or (not p48) p38 (not p25)) (or p31 p40 p42) (or (not p24) (not p1) (not p52)) (or p25 (not p58) (not p12)) (or p50 p43 p35) (or p18 p9 (not p44)) (or (not p12) (not p36) p28) (or (not p28) (not p12) (not p51)) (or p58 p5 (not p30)) (or (not p27) (not p31) (not p43)) (or (not p32) p42 (not p44)) (or p20 p29 (not p34)) (or (not p3) p29 (not p53)) (or (not p13) (not p36) p53) (or p59 (not p25) (not p25)) (or (not p28) (not p5) p53) (or (not p11) (not p59) (not p53)) (or (not p8) (not p0) (not p0)) (or p50 (not p15) p10) (or (not p4) (not p38) (not p26)) (or (not p13) p38 p22) (or (not p24) p3 (not p27)) (or p32 p56 p41) (or p39 p53 (not p39)) (or (not p19) (not p30) (not p38)) (or (not p37) (not p32) p33) (or p48 p37 (not p11)) (or p44 (not p58) (not p23)) (or (not p5) p28 (not p40)) (or p10 (not p29) p17) (or (not p56) (not p3) p8) (or (not p34) (not p57) (not p39)) (or p25 p14 (not p56)) (or p48 (not p1) (not p21)) (or p34 p39 p32) (or p32 (not p21) (not p26)) (or p44 p25 (not p49)) (or (not p15) p26 p6) (or p12 p21 p30) (or (not p3) (not p10) p1) (or (not p9) p21 (not p47)) (or (not p11) p33 p24) (or p4 (not p33) (not p47)) (or p42 (not p24) p1) (or p13 (not p56) (not p55)) (or p53 p28 p10) (or (not p21) (not p49) (not p26)) (or p59 p39 p11) (or (not p24) (not p32) p17) (or p42 p50 (not p21)) (or (not p25) (not p3) p4) (or p40 (not p3) p2) (or p56 (not p10) p18) (or p33 p2 (not p47)) (or p29 p10 (not p59)) (or (not p10) p0 (not p45)) (or p12 (not p48) (not p59)) (or (not p9) p38 p37) (or p4 (not p59) (not p13)) (or p24 (not p11) p16) (or p42 p27 (not p50)) (or p6 (not p12) p12) (or p25 p50 p46) (or p24 (not p35) (not p53)) (or (not p13) (not p10) p40) (or (not p33) (not p23) p44) (or p18 p27 p34) (or p1 p11 (not p31)) (or (not p50) p0 (not p7)) (or (not p19) (not p4) p54) (or p17 (not p48) p58) (or p48 p25 p10) (or p55 (not p24) p58) (or p31 p27 p53) (or p58 p16 p58) (or (not p17) (not p33) p30) (or p28 (not p19) p55) (or p40 (not p0) (not p15)) (or p31 p15 (not p29)) (or p48 (not p33) (not p47)) (or p58 p50 (not p33)) (or p13 p43 p1) (or p58 (not p1) p37) (or (not p2) (not p16) (not p59)) (or p29 (not p58) p52) (or (not p36) (not p57) (not p8)) (or (not p37) p56 p13) (or (not p49) p46 p15) (or (not p41) (not p34) (not p50)) (or p51 (not p3) (not p50)) (or p8 (not p35) (not p52)) (or p46 p54 p24) (or p33 (not p25) p12) (or p6 p53 p16) (or (not p54) (not p49) (not p41)) (or (not p22) (not p11) (not p38)) (or p4 (not p29) (not p54)) (or (not p42) (not p42) p32) (or p17 (not p47) p21) (or (not p13) p22 p55) (or p33 (not p36) (not p15)) (or p19 (not p42) (not p39)) (or p58 p37 (not p9)) (or p36 p18 p9) (or (not p23) (not p8) (not p49)) (or p5 p17 (not p37)) (or (not p46) (not p48) (not p33)) (or (not p14) (not p42) p25) (or p22 (not p34) (not p53)) (or (not p13) (not p44) (not p46)) (or (not p4) p6 (not p58)) (or p5 p47 (not p4)) (or (not p33) p1 (not p36)) (or p26 p15 (not p20)) (or p15 (not p50) p13) (or (not p51) p16 (not p37)) (or (not p5) p5 p14) (or p8 p46 (not p3)) (or p47 (not p4) (not p16)) (or (not p20) p32 (not p58)) (or (not p6) (not p48) p20) (or (not p8) p25 p4) (or p59 p49 p58) (or p37 (not p12) p21) (or p17 (not p52) p21) (or p3 p10 p25) (or p30 (not p35) (not p47)) (or (not p14) (not p54) (not p42)) (or p34 p59 p9) (or p6 (not p42) p28) (or p32 p12 (not p14)) (or (not p12) (not p27) (not p54)) (or (not p9) (not p16) p39) (or (not p10) p0 p32) (or p36 (not p49) (not p15)) (or p25 p23 (not p54)) (or (not p24) (not p20) (not p45)) (or (not p26) (not p59) (not p57)) (or p4 (not p47) p49) (or (not p29) (not p43) p27) (or p4 (not p49) (not p34)) (or (not p36) (not p7) p3) (or p17 p58 p17) (or p35 (not p13) p35) (or (not p21) p49 p3) (or p21 p15 p48) (or (not p13) (not p3) p5) (or (not p6) (not p33) (not p16)) (or (not p39) p43 p18) (or (not p37) p1 p36) (or p31 p12 p20) (or p27 p28 (not p41)) (or (not p31) p47 p1) (or (not p47) p17 (not p27)) (or (not p14) p29 p51) (or (not p42) (not p52) p38) (or (not p47) p37 p47) (or p35 p58 (not p55)) (or (not p58) (not p41) (not p5)) (or p37 (not p39) (not p2)) (or p8 (not p53) (not p46)) (or (not p51) (not p8) (not p4)) (or p41 (not p47) p48) (or p21 (not p10) (not p4)) (or p5 (not p58) (not p2)) (or (not p28) (not p15) p8) (or (not p42) (not p40) p40) (or p13 p50 (not p59)) (or p8 p33 p1) (or p37 (not p57) p47) (or p48 p31 (not p21)) (or (not p29) (not p30) p42) (or (not p57) (not p35) p16) (or p45 p34 (not p16)))
)
(check-sat)
(get-model)
